n = 15
Q1 = [0 29 32 31 12 19 24 47 28 21 49 28 30 21 43; 0 0 50 50 21 28 26 14 26 33 8 46 34 25 8; 0 0 0 34 38 22 45 11 32 43 29 49 34 16 32; 0 0 0 0 5 38 5 48 45 30 48 7 35 7 49; 0 0 0 0 0 31 10 9 10 19 34 26 7 44 15; 0 0 0 0 0 0 35 21 18 18 35 21 23 10 22; 0 0 0 0 0 0 0 25 11 35 36 9 16 46 26; 0 0 0 0 0 0 0 0 28 24 34 32 14 8 32; 0 0 0 0 0 0 0 0 0 50 40 40 21 19 21; 0 0 0 0 0 0 0 0 0 0 6 19 28 30 11; 0 0 0 0 0 0 0 0 0 0 0 18 26 12 15; 0 0 0 0 0 0 0 0 0 0 0 0 17 35 18; 0 0 0 0 0 0 0 0 0 0 0 0 0 5 20; 0 0 0 0 0 0 0 0 0 0 0 0 0 0 9; 0 0 0 0 0 0 0 0 0 0 0 0 0 0 0]
Q2 = [0.0 4.0 9.0 15.0 44.0 36.0 26.0 3.0 17.0 50.0 1.0 7.0 9.0 40.0 3.0; 0.0 0.0 0.0 0.0 38.0 6.0 4.0 36.0 24.0 3.0 49.0 2.0 16.0 20.0 46.0; 0.0 0.0 0.0 6.0 11.0 38.0 2.0 40.0 18.0 0.0 13.0 1.0 14.0 37.0 8.0; 0.0 0.0 0.0 0.0 47.0 9.0 49.0 1.0 5.0 18.0 2.0 47.0 3.0 47.0 0.0; 0.0 0.0 0.0 0.0 0.0 6.0 41.0 42.0 44.0 36.0 5.0 13.0 45.0 2.0 50.0; 0.0 0.0 0.0 0.0 0.0 0.0 14.0 41.0 45.0 45.0 8.0 47.0 42.0 45.0 45.0; 0.0 0.0 0.0 0.0 0.0 0.0 0.0 20.0 41.0 6.0 4.0 48.0 44.0 4.0 6.0; 0.0 0.0 0.0 0.0 0.0 0.0 0.0 0.0 12.0 30.0 1.0 12.0 46.0 50.0 14.0; 0.0 0.0 0.0 0.0 0.0 0.0 0.0 0.0 0.0 0.0 6.0 0.0 50.0 42.0 30.0; 0.0 0.0 0.0 0.0 0.0 0.0 0.0 0.0 0.0 0.0 47.0 34.0 21.0 14.0 42.0; 0.0 0.0 0.0 0.0 0.0 0.0 0.0 0.0 0.0 0.0 0.0 34.0 21.0 47.0 50.0; 0.0 0.0 0.0 0.0 0.0 0.0 0.0 0.0 0.0 0.0 0.0 0.0 49.0 14.0 46.0; 0.0 0.0 0.0 0.0 0.0 0.0 0.0 0.0 0.0 0.0 0.0 0.0 0.0 48.0 44.0; 0.0 0.0 0.0 0.0 0.0 0.0 0.0 0.0 0.0 0.0 0.0 0.0 0.0 0.0 45.0; 0.0 0.0 0.0 0.0 0.0 0.0 0.0 0.0 0.0 0.0 0.0 0.0 0.0 0.0 0.0]
Q3 = [0 41 25 9 13 11 14 16 20 0 18 38 14 9 9; 0 0 18 0 5 70 65 2 20 8 12 8 9 21 9; 0 0 0 27 18 5 11 1 13 7 21 20 21 10 5; 0 0 0 0 4 21 4 10 15 17 2 6 10 17 22; 0 0 0 0 0 27 9 0 1 5 21 16 0 18 4; 0 0 0 0 0 0 13 0 2 4 23 1 5 8 3; 0 0 0 0 0 0 0 22 16 2 19 12 10 4 44; 0 0 0 0 0 0 0 0 19 9 60 3 11 1 4; 0 0 0 0 0 0 0 0 0 5 17 19 0 10 2; 0 0 0 0 0 0 0 0 0 0 0 4 1 15 5; 0 0 0 0 0 0 0 0 0 0 0 8 3 8 2; 0 0 0 0 0 0 0 0 0 0 0 0 3 13 0; 0 0 0 0 0 0 0 0 0 0 0 0 0 10 1; 0 0 0 0 0 0 0 0 0 0 0 0 0 0 10; 0 0 0 0 0 0 0 0 0 0 0 0 0 0 0]
